 20 5 5 2
 0 0 21 
 0 1 53 
 0 3 95 
 0 4 55 
 0 2 34
 1 1 21 
 1 4 52 
 1 3 16 
 1 2 26 
 1 0 71
 2 4 39 
 2 3 98 
 2 0 42 
 2 2 31 
 2 1 12
 3 1 83 
 3 4 34 
 3 2 64 
 3 0 19 
 3 3 37
 4 0 77 
 4 1 55 
 4 3 79 
 4 2 66 
 4 4 77
 5 0 54 
 5 2 43 
 5 3 79 
 5 1 92 
 5 4 62
 6 4 69 
 6 3 77 
 6 0 87 
 6 2 87 
 6 1 93
 7 2 38 
 7 1 60 
 7 0 41 
 7 4 24 
 7 3 83
 8 4 17 
 8 0 49 
 8 3 25 
 8 1 44 
 8 2 98
 9 3 77 
 9 4 79 
 9 2 43 
 9 0 75
 9 1 96
 10 0 21 
 10 1 53 
 10 3 95 
 10 4 55 
 10 2 34
 11 1 21 
 11 4 52 
 11 3 16 
 11 2 26 
 11 0 71
 12 4 39 
 12 3 98 
 12 0 42 
 12 2 31 
 12 1 12
 13 0 77 
 13 1 55 
 13 3 79 
 13 2 66 
 13 4 77
 14 1 83 
 14 4 34 
 14 2 64 
 14 0 19 
 14 3 37
 15 0 54 
 15 2 43 
 15 3 79 
 15 1 92 
 15 4 62
 16 4 69 
 16 3 77 
 16 0 87 
 16 2 87 
 16 1 93
 17 2 38 
 17 1 60 
 17 0 41 
 17 4 24 
 17 3 83
 18 4 17 
 18 0 49 
 18 3 25 
 18 1 44 
 18 2 98
 19 3 77 
 19 4 79 
 19 2 43 
 19 0 75 
 19 1 96
